c 131_4_checker.cnf
c
c field = 131
c formula set type = 4_checker
c
p cnf 5 74
252 
254 
256 
258 
-250 
253 
255 
257 
259 
-251 
252 
254 
256 
258 
-262 
253 
255 
257 
259 
-263 
254 
256 
258 
262 
-252 
255 
257 
259 
263 
-253 
254 
256 
258 
262 
-264 
255 
257 
259 
263 
-265 
256 
258 
262 
264 
-254 
257 
259 
263 
265 
-255 
256 
258 
262 
264 
-266 
257 
259 
263 
265 
-267 
258 
262 
264 
266 
-256 
259 
263 
265 
267 
-257 
258 
262 
264 
266 
-268 
259 
263 
265 
267 
-269 
262 
264 
266 
268 
-258 
263 
265 
267 
269 
-259 
140 
170 
200 
230 
-110 
141 
171 
201 
231 
-111 
140 
170 
200 
230 
-290 
141 
171 
201 
231 
-291 
170 
200 
230 
290 
-140 
171 
201 
231 
291 
-141 
170 
200 
230 
290 
-320 
171 
201 
231 
291 
-321 
200 
230 
290 
320 
-170 
201 
231 
291 
321 
-171 
200 
230 
290 
320 
-350 
201 
231 
291 
321 
-351 
230 
290 
320 
350 
-200 
231 
291 
321 
351 
-201 
230 
290 
320 
350 
-380 
231 
291 
321 
351 
-381 
290 
320 
350 
380 
-230 
291 
321 
351 
381 
-231 
290 
320 
350 
380 
-410 
291 
321 
351 
381 
-411 
132 
164 
196 
228 
-100 
133 
165 
197 
229 
-101 
132 
164 
196 
228 
-292 
133 
165 
197 
229 
-293 
164 
196 
228 
292 
-132 
165 
197 
229 
293 
-133 
164 
196 
228 
292 
-324 
165 
197 
229 
293 
-325 
196 
228 
292 
324 
-164 
197 
229 
293 
325 
-165 
196 
228 
292 
324 
-356 
197 
229 
293 
325 
-357 
228 
292 
324 
356 
-196 
229 
293 
325 
357 
-197 
228 
292 
324 
356 
-388 
229 
293 
325 
357 
-389 
292 
324 
356 
388 
-228 
293 
325 
357 
389 
-229 
148 
176 
204 
232 
-288 
149 
177 
205 
233 
-289 
176 
204 
232 
288 
-148 
177 
205 
233 
289 
-149 
176 
204 
232 
288 
-316 
177 
205 
233 
289 
-317 
204 
232 
288 
316 
-176 
205 
233 
289 
317 
-177 
204 
232 
288 
316 
-344 
205 
233 
289 
317 
-345 
232 
288 
316 
344 
-204 
233 
289 
317 
345 
-205 
232 
288 
316 
344 
-372 
233 
289 
317 
345 
-373 
288 
316 
344 
372 
-232 
289 
317 
345 
373 
-233 
288 
316 
344 
372 
-400 
289 
317 
345 
373 
-401 
